\ Model birth-death-regulation-capture-efficiency
\ LP format - for model browsing. Use MPS format to capture full model detail.
Minimize
  k_reg
Subject To
 R0: k_deg_2 = 1
 B_lb_0,_0: p[0,0] + 0.2 p[0,1] + 0.04 p[0,2] + 0.008 p[0,3]
   + 0.0016 p[0,4] + 0.00032 p[0,5] + 6.4e-05 p[0,6] + 0.2 p[1,0]
   + 0.04 p[1,1] + 0.008 p[1,2] + 0.0016 p[1,3] + 0.00032 p[1,4]
   + 6.4e-05 p[1,5] + 1.28e-05 p[1,6] + 0.04 p[2,0] + 0.008 p[2,1]
   + 0.0016 p[2,2] + 0.00032 p[2,3] + 6.4e-05 p[2,4] + 1.28e-05 p[2,5]
   + 2.56e-06 p[2,6] + 0.008 p[3,0] + 0.0016 p[3,1] + 0.00032 p[3,2]
   + 6.4e-05 p[3,3] + 1.28e-05 p[3,4] + 2.56e-06 p[3,5] + 5.12e-07 p[3,6]
   + 0.0016 p[4,0] + 0.00032 p[4,1] + 6.4e-05 p[4,2] + 1.28e-05 p[4,3]
   + 2.56e-06 p[4,4] + 5.12e-07 p[4,5] + 1.024e-07 p[4,6] + 0.00032 p[5,0]
   + 6.4e-05 p[5,1] + 1.28e-05 p[5,2] + 2.56e-06 p[5,3] + 5.12e-07 p[5,4]
   + 1.024e-07 p[5,5] + 2.048e-08 p[5,6] >= 0.3233178571428572
 B_ub_0,_0: p[0,0] + 0.2 p[0,1] + 0.04 p[0,2] + 0.008 p[0,3]
   + 0.0016 p[0,4] + 0.00032 p[0,5] + 6.4e-05 p[0,6] + 0.2 p[1,0]
   + 0.04 p[1,1] + 0.008 p[1,2] + 0.0016 p[1,3] + 0.00032 p[1,4]
   + 6.4e-05 p[1,5] + 1.28e-05 p[1,6] + 0.04 p[2,0] + 0.008 p[2,1]
   + 0.0016 p[2,2] + 0.00032 p[2,3] + 6.4e-05 p[2,4] + 1.28e-05 p[2,5]
   + 2.56e-06 p[2,6] + 0.008 p[3,0] + 0.0016 p[3,1] + 0.00032 p[3,2]
   + 6.4e-05 p[3,3] + 1.28e-05 p[3,4] + 2.56e-06 p[3,5] + 5.12e-07 p[3,6]
   + 0.0016 p[4,0] + 0.00032 p[4,1] + 6.4e-05 p[4,2] + 1.28e-05 p[4,3]
   + 2.56e-06 p[4,4] + 5.12e-07 p[4,5] + 1.024e-07 p[4,6] + 0.00032 p[5,0]
   + 6.4e-05 p[5,1] + 1.28e-05 p[5,2] + 2.56e-06 p[5,3] + 5.12e-07 p[5,4]
   + 1.024e-07 p[5,5] + 2.048e-08 p[5,6] <= 0.3688
 B_lb_0,_1: 0.8 p[0,1] + 0.32 p[0,2] + 0.096 p[0,3] + 0.0256 p[0,4]
   + 0.0064 p[0,5] + 0.001536 p[0,6] + 0.16 p[1,1] + 0.064 p[1,2]
   + 0.0192 p[1,3] + 0.00512 p[1,4] + 0.00128 p[1,5] + 0.0003072 p[1,6]
   + 0.032 p[2,1] + 0.0128 p[2,2] + 0.00384 p[2,3] + 0.001024 p[2,4]
   + 0.000256 p[2,5] + 6.144e-05 p[2,6] + 0.0064 p[3,1] + 0.00256 p[3,2]
   + 0.000768 p[3,3] + 0.0002048 p[3,4] + 5.12e-05 p[3,5]
   + 1.2288e-05 p[3,6] + 0.00128 p[4,1] + 0.000512 p[4,2]
   + 0.0001536 p[4,3] + 4.096e-05 p[4,4] + 1.024e-05 p[4,5]
   + 2.4576e-06 p[4,6] + 0.000256 p[5,1] + 0.0001024 p[5,2]
   + 3.072e-05 p[5,3] + 8.192e-06 p[5,4] + 2.048e-06 p[5,5]
   + 4.9152e-07 p[5,6] >= 0.1653178571428571
 B_ub_0,_1: 0.8 p[0,1] + 0.32 p[0,2] + 0.096 p[0,3] + 0.0256 p[0,4]
   + 0.0064 p[0,5] + 0.001536 p[0,6] + 0.16 p[1,1] + 0.064 p[1,2]
   + 0.0192 p[1,3] + 0.00512 p[1,4] + 0.00128 p[1,5] + 0.0003072 p[1,6]
   + 0.032 p[2,1] + 0.0128 p[2,2] + 0.00384 p[2,3] + 0.001024 p[2,4]
   + 0.000256 p[2,5] + 6.144e-05 p[2,6] + 0.0064 p[3,1] + 0.00256 p[3,2]
   + 0.000768 p[3,3] + 0.0002048 p[3,4] + 5.12e-05 p[3,5]
   + 1.2288e-05 p[3,6] + 0.00128 p[4,1] + 0.000512 p[4,2]
   + 0.0001536 p[4,3] + 4.096e-05 p[4,4] + 1.024e-05 p[4,5]
   + 2.4576e-06 p[4,6] + 0.000256 p[5,1] + 0.0001024 p[5,2]
   + 3.072e-05 p[5,3] + 8.192e-06 p[5,4] + 2.048e-06 p[5,5]
   + 4.9152e-07 p[5,6] <= 0.206
 B_lb_0,_2: 0.64 p[0,2] + 0.384 p[0,3] + 0.1536 p[0,4] + 0.0512 p[0,5]
   + 0.01536 p[0,6] + 0.128 p[1,2] + 0.0768 p[1,3] + 0.03072 p[1,4]
   + 0.01024 p[1,5] + 0.003072 p[1,6] + 0.0256 p[2,2] + 0.01536 p[2,3]
   + 0.006144 p[2,4] + 0.002048 p[2,5] + 0.0006144 p[2,6] + 0.00512 p[3,2]
   + 0.003072 p[3,3] + 0.0012288 p[3,4] + 0.0004096 p[3,5]
   + 0.00012288 p[3,6] + 0.001024 p[4,2] + 0.0006144 p[4,3]
   + 0.00024576 p[4,4] + 8.192e-05 p[4,5] + 2.4576e-05 p[4,6]
   + 0.0002048 p[5,2] + 0.00012288 p[5,3] + 4.9152e-05 p[5,4]
   + 1.6384e-05 p[5,5] + 4.9152e-06 p[5,6] >= 0.0365178571428572
 B_ub_0,_2: 0.64 p[0,2] + 0.384 p[0,3] + 0.1536 p[0,4] + 0.0512 p[0,5]
   + 0.01536 p[0,6] + 0.128 p[1,2] + 0.0768 p[1,3] + 0.03072 p[1,4]
   + 0.01024 p[1,5] + 0.003072 p[1,6] + 0.0256 p[2,2] + 0.01536 p[2,3]
   + 0.006144 p[2,4] + 0.002048 p[2,5] + 0.0006144 p[2,6] + 0.00512 p[3,2]
   + 0.003072 p[3,3] + 0.0012288 p[3,4] + 0.0004096 p[3,5]
   + 0.00012288 p[3,6] + 0.001024 p[4,2] + 0.0006144 p[4,3]
   + 0.00024576 p[4,4] + 8.192e-05 p[4,5] + 2.4576e-05 p[4,6]
   + 0.0002048 p[5,2] + 0.00012288 p[5,3] + 4.9152e-05 p[5,4]
   + 1.6384e-05 p[5,5] + 4.9152e-06 p[5,6] <= 0.0682
 B_lb_0,_3: 0.512 p[0,3] + 0.4096 p[0,4] + 0.2048 p[0,5] + 0.08192 p[0,6]
   + 0.1024 p[1,3] + 0.08192 p[1,4] + 0.04096 p[1,5] + 0.016384 p[1,6]
   + 0.02048 p[2,3] + 0.016384 p[2,4] + 0.008192 p[2,5] + 0.0032768 p[2,6]
   + 0.004096 p[3,3] + 0.0032768 p[3,4] + 0.0016384 p[3,5]
   + 0.00065536 p[3,6] + 0.0008192 p[4,3] + 0.00065536 p[4,4]
   + 0.00032768 p[4,5] + 0.000131072 p[4,6] + 0.00016384 p[5,3]
   + 0.000131072 p[5,4] + 6.5536e-05 p[5,5] + 2.62144e-05 p[5,6]
   >= -0.00688214285714285
 B_ub_0,_3: 0.512 p[0,3] + 0.4096 p[0,4] + 0.2048 p[0,5] + 0.08192 p[0,6]
   + 0.1024 p[1,3] + 0.08192 p[1,4] + 0.04096 p[1,5] + 0.016384 p[1,6]
   + 0.02048 p[2,3] + 0.016384 p[2,4] + 0.008192 p[2,5] + 0.0032768 p[2,6]
   + 0.004096 p[3,3] + 0.0032768 p[3,4] + 0.0016384 p[3,5]
   + 0.00065536 p[3,6] + 0.0008192 p[4,3] + 0.00065536 p[4,4]
   + 0.00032768 p[4,5] + 0.000131072 p[4,6] + 0.00016384 p[5,3]
   + 0.000131072 p[5,4] + 6.5536e-05 p[5,5] + 2.62144e-05 p[5,6] <= 0.0182
 B_lb_0,_4: 0.4096 p[0,4] + 0.4096 p[0,5] + 0.24576 p[0,6] + 0.08192 p[1,4]
   + 0.08192 p[1,5] + 0.049152 p[1,6] + 0.016384 p[2,4] + 0.016384 p[2,5]
   + 0.0098304 p[2,6] + 0.0032768 p[3,4] + 0.0032768 p[3,5]
   + 0.00196608 p[3,6] + 0.00065536 p[4,4] + 0.00065536 p[4,5]
   + 0.000393216 p[4,6] + 0.000131072 p[5,4] + 0.000131072 p[5,5]
   + 7.86432e-05 p[5,6] >= -0.0176821428571429
 B_ub_0,_4: 0.4096 p[0,4] + 0.4096 p[0,5] + 0.24576 p[0,6] + 0.08192 p[1,4]
   + 0.08192 p[1,5] + 0.049152 p[1,6] + 0.016384 p[2,4] + 0.016384 p[2,5]
   + 0.0098304 p[2,6] + 0.0032768 p[3,4] + 0.0032768 p[3,5]
   + 0.00196608 p[3,6] + 0.00065536 p[4,4] + 0.00065536 p[4,5]
   + 0.000393216 p[4,6] + 0.000131072 p[5,4] + 0.000131072 p[5,5]
   + 7.86432e-05 p[5,6] <= 0.0034
 B_lb_0,_5: 0.32768 p[0,5] + 0.393216 p[0,6] + 0.065536 p[1,5]
   + 0.0786432 p[1,6] + 0.0131072 p[2,5] + 0.0157286400000017 p[2,6]
   + 0.00262144 p[3,5] + 0.00314572799999987 p[3,6] + 0.000524288 p[4,5]
   + 6.2914560000003209e-04 p[4,6] + 1.0485760000000534e-04 p[5,5]
   + 1.2582911999999504e-04 p[5,6] >= -0.0184821428571428
 B_ub_0,_5: 0.32768 p[0,5] + 0.393216 p[0,6] + 0.065536 p[1,5]
   + 0.0786432 p[1,6] + 0.0131072 p[2,5] + 0.0157286400000017 p[2,6]
   + 0.00262144 p[3,5] + 0.00314572799999987 p[3,6] + 0.000524288 p[4,5]
   + 6.2914560000003209e-04 p[4,6] + 1.0485760000000534e-04 p[5,5]
   + 1.2582911999999504e-04 p[5,6] <= 1
 B_lb_1,_0: 0.8 p[1,0] + 0.16 p[1,1] + 0.032 p[1,2] + 0.0064 p[1,3]
   + 0.00128 p[1,4] + 0.000256 p[1,5] + 5.12e-05 p[1,6] + 0.32 p[2,0]
   + 0.064 p[2,1] + 0.0128 p[2,2] + 0.00256 p[2,3] + 0.000512 p[2,4]
   + 0.0001024 p[2,5] + 2.048e-05 p[2,6] + 0.096 p[3,0] + 0.0192 p[3,1]
   + 0.00384 p[3,2] + 0.000768 p[3,3] + 0.0001536 p[3,4] + 3.072e-05 p[3,5]
   + 6.144e-06 p[3,6] + 0.0256 p[4,0] + 0.00512 p[4,1] + 0.001024 p[4,2]
   + 0.0002048 p[4,3] + 4.096e-05 p[4,4] + 8.192e-06 p[4,5]
   + 1.6384e-06 p[4,6] + 0.0064 p[5,0] + 0.00128 p[5,1] + 0.000256 p[5,2]
   + 5.12e-05 p[5,3] + 1.024e-05 p[5,4] + 2.048e-06 p[5,5]
   + 4.096e-07 p[5,6] >= 0.1635178571428572
 B_ub_1,_0: 0.8 p[1,0] + 0.16 p[1,1] + 0.032 p[1,2] + 0.0064 p[1,3]
   + 0.00128 p[1,4] + 0.000256 p[1,5] + 5.12e-05 p[1,6] + 0.32 p[2,0]
   + 0.064 p[2,1] + 0.0128 p[2,2] + 0.00256 p[2,3] + 0.000512 p[2,4]
   + 0.0001024 p[2,5] + 2.048e-05 p[2,6] + 0.096 p[3,0] + 0.0192 p[3,1]
   + 0.00384 p[3,2] + 0.000768 p[3,3] + 0.0001536 p[3,4] + 3.072e-05 p[3,5]
   + 6.144e-06 p[3,6] + 0.0256 p[4,0] + 0.00512 p[4,1] + 0.001024 p[4,2]
   + 0.0002048 p[4,3] + 4.096e-05 p[4,4] + 8.192e-06 p[4,5]
   + 1.6384e-06 p[4,6] + 0.0064 p[5,0] + 0.00128 p[5,1] + 0.000256 p[5,2]
   + 5.12e-05 p[5,3] + 1.024e-05 p[5,4] + 2.048e-06 p[5,5]
   + 4.096e-07 p[5,6] <= 0.204205
 B_lb_1,_1: 0.64 p[1,1] + 0.256 p[1,2] + 0.0768 p[1,3] + 0.02048 p[1,4]
   + 0.00512 p[1,5] + 0.0012288 p[1,6] + 0.256 p[2,1] + 0.1024 p[2,2]
   + 0.03072 p[2,3] + 0.008192 p[2,4] + 0.002048 p[2,5] + 0.00049152 p[2,6]
   + 0.0768 p[3,1] + 0.03072 p[3,2] + 0.009216 p[3,3] + 0.0024576 p[3,4]
   + 0.0006144 p[3,5] + 0.000147456 p[3,6] + 0.02048 p[4,1]
   + 0.008192 p[4,2] + 0.0024576 p[4,3] + 0.00065536 p[4,4]
   + 0.00016384 p[4,5] + 3.93216e-05 p[4,6] + 0.00512 p[5,1]
   + 0.002048 p[5,2] + 0.0006144 p[5,3] + 0.00016384 p[5,4]
   + 4.096e-05 p[5,5] + 9.8304e-06 p[5,6] >= 0.0437178571428571
 B_ub_1,_1: 0.64 p[1,1] + 0.256 p[1,2] + 0.0768 p[1,3] + 0.02048 p[1,4]
   + 0.00512 p[1,5] + 0.0012288 p[1,6] + 0.256 p[2,1] + 0.1024 p[2,2]
   + 0.03072 p[2,3] + 0.008192 p[2,4] + 0.002048 p[2,5] + 0.00049152 p[2,6]
   + 0.0768 p[3,1] + 0.03072 p[3,2] + 0.009216 p[3,3] + 0.0024576 p[3,4]
   + 0.0006144 p[3,5] + 0.000147456 p[3,6] + 0.02048 p[4,1]
   + 0.008192 p[4,2] + 0.0024576 p[4,3] + 0.00065536 p[4,4]
   + 0.00016384 p[4,5] + 3.93216e-05 p[4,6] + 0.00512 p[5,1]
   + 0.002048 p[5,2] + 0.0006144 p[5,3] + 0.00016384 p[5,4]
   + 4.096e-05 p[5,5] + 9.8304e-06 p[5,6] <= 0.076
 B_lb_1,_2: 0.512 p[1,2] + 0.3072 p[1,3] + 0.12288 p[1,4] + 0.04096 p[1,5]
   + 0.012288 p[1,6] + 0.2048 p[2,2] + 0.12288 p[2,3] + 0.049152 p[2,4]
   + 0.016384 p[2,5] + 0.0049152 p[2,6] + 0.06144 p[3,2] + 0.036864 p[3,3]
   + 0.0147456 p[3,4] + 0.0049152 p[3,5] + 0.00147456 p[3,6]
   + 0.016384 p[4,2] + 0.0098304 p[4,3] + 0.00393216 p[4,4]
   + 0.00131072 p[4,5] + 0.000393216 p[4,6] + 0.004096 p[5,2]
   + 0.0024576 p[5,3] + 0.00098304 p[5,4] + 0.00032768 p[5,5]
   + 9.8304e-05 p[5,6] >= -0.00848214285714285
 B_ub_1,_2: 0.512 p[1,2] + 0.3072 p[1,3] + 0.12288 p[1,4] + 0.04096 p[1,5]
   + 0.012288 p[1,6] + 0.2048 p[2,2] + 0.12288 p[2,3] + 0.049152 p[2,4]
   + 0.016384 p[2,5] + 0.0049152 p[2,6] + 0.06144 p[3,2] + 0.036864 p[3,3]
   + 0.0147456 p[3,4] + 0.0049152 p[3,5] + 0.00147456 p[3,6]
   + 0.016384 p[4,2] + 0.0098304 p[4,3] + 0.00393216 p[4,4]
   + 0.00131072 p[4,5] + 0.000393216 p[4,6] + 0.004096 p[5,2]
   + 0.0024576 p[5,3] + 0.00098304 p[5,4] + 0.00032768 p[5,5]
   + 9.8304e-05 p[5,6] <= 0.0162
 B_lb_1,_3: 0.4096 p[1,3] + 0.32768 p[1,4] + 0.16384 p[1,5]
   + 0.065536 p[1,6] + 0.16384 p[2,3] + 0.131072 p[2,4] + 0.065536 p[2,5]
   + 0.0262144 p[2,6] + 0.049152 p[3,3] + 0.0393216 p[3,4]
   + 0.0196608 p[3,5] + 0.00786432 p[3,6] + 0.0131072 p[4,3]
   + 0.0104857600000011 p[4,4] + 0.00524288 p[4,5]
   + 0.00209715200000011 p[4,6] + 0.0032768 p[5,3] + 0.00262144 p[5,4]
   + 0.00131072 p[5,5] + 0.000524288 p[5,6] >= -0.0174821428571428
 B_ub_1,_3: 0.4096 p[1,3] + 0.32768 p[1,4] + 0.16384 p[1,5]
   + 0.065536 p[1,6] + 0.16384 p[2,3] + 0.131072 p[2,4] + 0.065536 p[2,5]
   + 0.0262144 p[2,6] + 0.049152 p[3,3] + 0.0393216 p[3,4]
   + 0.0196608 p[3,5] + 0.00786432 p[3,6] + 0.0131072 p[4,3]
   + 0.0104857600000011 p[4,4] + 0.00524288 p[4,5]
   + 0.00209715200000011 p[4,6] + 0.0032768 p[5,3] + 0.00262144 p[5,4]
   + 0.00131072 p[5,5] + 0.000524288 p[5,6] <= 0.0036
 B_lb_1,_4: 0.32768 p[1,4] + 0.32768 p[1,5] + 0.196608 p[1,6]
   + 0.131072 p[2,4] + 0.131072 p[2,5] + 0.0786432 p[2,6]
   + 0.0393216 p[3,4] + 0.0393216 p[3,5] + 0.023592959999999 p[3,6]
   + 0.0104857600000011 p[4,4] + 0.0104857599999996 p[4,5]
   + 0.00629145600000032 p[4,6] + 0.00262144 p[5,4] + 0.00262144 p[5,5]
   + 0.00157286399999994 p[5,6] >= -0.0184821428571428
 B_ub_1,_4: 0.32768 p[1,4] + 0.32768 p[1,5] + 0.196608 p[1,6]
   + 0.131072 p[2,4] + 0.131072 p[2,5] + 0.0786432 p[2,6]
   + 0.0393216 p[3,4] + 0.0393216 p[3,5] + 0.023592959999999 p[3,6]
   + 0.0104857600000011 p[4,4] + 0.0104857599999996 p[4,5]
   + 0.00629145600000032 p[4,6] + 0.00262144 p[5,4] + 0.00262144 p[5,5]
   + 0.00157286399999994 p[5,6] <= 1
 B_lb_1,_5: 0.262144 p[1,5] + 0.3145728000000031 p[1,6]
   + 0.104857600000001 p[2,5] + 0.1258291200000136 p[2,6]
   + 0.0314572800000034 p[3,5] + 0.0377487359999984 p[3,6]
   + 0.00838860799999965 p[4,5] + 0.0100663296000005 p[4,6]
   + 0.00209715200000011 p[5,5] + 0.0025165823999999 p[5,6]
   >= -0.0184821428571428
 B_ub_1,_5: 0.262144 p[1,5] + 0.3145728000000031 p[1,6]
   + 0.104857600000001 p[2,5] + 0.1258291200000136 p[2,6]
   + 0.0314572800000034 p[3,5] + 0.0377487359999984 p[3,6]
   + 0.00838860799999965 p[4,5] + 0.0100663296000005 p[4,6]
   + 0.00209715200000011 p[5,5] + 0.0025165823999999 p[5,6] <= 1
 B_lb_2,_0: 0.64 p[2,0] + 0.128 p[2,1] + 0.0256 p[2,2] + 0.00512 p[2,3]
   + 0.001024 p[2,4] + 0.0002048 p[2,5] + 4.096e-05 p[2,6] + 0.384 p[3,0]
   + 0.0768 p[3,1] + 0.01536 p[3,2] + 0.003072 p[3,3] + 0.0006144 p[3,4]
   + 0.00012288 p[3,5] + 2.4576e-05 p[3,6] + 0.1536 p[4,0] + 0.03072 p[4,1]
   + 0.006144 p[4,2] + 0.0012288 p[4,3] + 0.00024576 p[4,4]
   + 4.9152e-05 p[4,5] + 9.8304e-06 p[4,6] + 0.0512 p[5,0] + 0.01024 p[5,1]
   + 0.002048 p[5,2] + 0.0004096 p[5,3] + 8.192e-05 p[5,4]
   + 1.6384e-05 p[5,5] + 3.2768e-06 p[5,6] >= 0.0367128571428572
 B_ub_2,_0: 0.64 p[2,0] + 0.128 p[2,1] + 0.0256 p[2,2] + 0.00512 p[2,3]
   + 0.001024 p[2,4] + 0.0002048 p[2,5] + 4.096e-05 p[2,6] + 0.384 p[3,0]
   + 0.0768 p[3,1] + 0.01536 p[3,2] + 0.003072 p[3,3] + 0.0006144 p[3,4]
   + 0.00012288 p[3,5] + 2.4576e-05 p[3,6] + 0.1536 p[4,0] + 0.03072 p[4,1]
   + 0.006144 p[4,2] + 0.0012288 p[4,3] + 0.00024576 p[4,4]
   + 4.9152e-05 p[4,5] + 9.8304e-06 p[4,6] + 0.0512 p[5,0] + 0.01024 p[5,1]
   + 0.002048 p[5,2] + 0.0004096 p[5,3] + 8.192e-05 p[5,4]
   + 1.6384e-05 p[5,5] + 3.2768e-06 p[5,6] <= 0.0684
 B_lb_2,_1: 0.512 p[2,1] + 0.2048 p[2,2] + 0.06144 p[2,3] + 0.016384 p[2,4]
   + 0.004096 p[2,5] + 0.00098304 p[2,6] + 0.3072 p[3,1] + 0.12288 p[3,2]
   + 0.036864 p[3,3] + 0.0098304 p[3,4] + 0.0024576 p[3,5]
   + 0.000589824 p[3,6] + 0.12288 p[4,1] + 0.049152 p[4,2]
   + 0.0147456 p[4,3] + 0.00393216 p[4,4] + 0.00098304 p[4,5]
   + 2.3592960000001203e-04 p[4,6] + 0.04096 p[5,1] + 0.016384 p[5,2]
   + 0.0049152 p[5,3] + 0.00131072 p[5,4] + 0.00032768 p[5,5]
   + 7.86432e-05 p[5,6] >= -0.00928214285714285
 B_ub_2,_1: 0.512 p[2,1] + 0.2048 p[2,2] + 0.06144 p[2,3] + 0.016384 p[2,4]
   + 0.004096 p[2,5] + 0.00098304 p[2,6] + 0.3072 p[3,1] + 0.12288 p[3,2]
   + 0.036864 p[3,3] + 0.0098304 p[3,4] + 0.0024576 p[3,5]
   + 0.000589824 p[3,6] + 0.12288 p[4,1] + 0.049152 p[4,2]
   + 0.0147456 p[4,3] + 0.00393216 p[4,4] + 0.00098304 p[4,5]
   + 2.3592960000001203e-04 p[4,6] + 0.04096 p[5,1] + 0.016384 p[5,2]
   + 0.0049152 p[5,3] + 0.00131072 p[5,4] + 0.00032768 p[5,5]
   + 7.86432e-05 p[5,6] <= 0.0152
 B_lb_2,_2: 0.4096 p[2,2] + 0.24576 p[2,3] + 0.098304 p[2,4]
   + 0.032768 p[2,5] + 0.0098304 p[2,6] + 0.24576 p[3,2] + 0.147456 p[3,3]
   + 0.0589824 p[3,4] + 0.0196608 p[3,5] + 0.00589824 p[3,6]
   + 0.098304 p[4,2] + 0.0589824 p[4,3] + 0.0235929600000026 p[4,4]
   + 0.00786432 p[4,5] + 0.00235929600000012 p[4,6] + 0.032768 p[5,2]
   + 0.0196608 p[5,3] + 0.00786432 p[5,4] + 0.00262144 p[5,5]
   + 0.000786432 p[5,6] >= -0.0184821428571428
 B_ub_2,_2: 0.4096 p[2,2] + 0.24576 p[2,3] + 0.098304 p[2,4]
   + 0.032768 p[2,5] + 0.0098304 p[2,6] + 0.24576 p[3,2] + 0.147456 p[3,3]
   + 0.0589824 p[3,4] + 0.0196608 p[3,5] + 0.00589824 p[3,6]
   + 0.098304 p[4,2] + 0.0589824 p[4,3] + 0.0235929600000026 p[4,4]
   + 0.00786432 p[4,5] + 0.00235929600000012 p[4,6] + 0.032768 p[5,2]
   + 0.0196608 p[5,3] + 0.00786432 p[5,4] + 0.00262144 p[5,5]
   + 0.000786432 p[5,6] <= 1
 B_lb_2,_3: 0.32768 p[2,3] + 0.262144 p[2,4] + 0.131072 p[2,5]
   + 0.0524288 p[2,6] + 0.196608 p[3,3] + 0.1572864000000015 p[3,4]
   + 0.0786432 p[3,5] + 0.0314572799999987 p[3,6] + 0.0786432 p[4,3]
   + 0.0629145600000068 p[4,4] + 0.0314572799999987 p[4,5]
   + 0.0125829120000006 p[4,6] + 0.0262144 p[5,3]
   + 0.0209715199999991 p[5,4] + 0.0104857600000005 p[5,5]
   + 0.00419430399999983 p[5,6] >= -0.0184821428571428
 B_ub_2,_3: 0.32768 p[2,3] + 0.262144 p[2,4] + 0.131072 p[2,5]
   + 0.0524288 p[2,6] + 0.196608 p[3,3] + 0.1572864000000015 p[3,4]
   + 0.0786432 p[3,5] + 0.0314572799999987 p[3,6] + 0.0786432 p[4,3]
   + 0.0629145600000068 p[4,4] + 0.0314572799999987 p[4,5]
   + 0.0125829120000006 p[4,6] + 0.0262144 p[5,3]
   + 0.0209715199999991 p[5,4] + 0.0104857600000005 p[5,5]
   + 0.00419430399999983 p[5,6] <= 1
 B_lb_2,_4: 0.262144 p[2,4] + 0.262144 p[2,5] + 0.157286400000017 p[2,6]
   + 0.1572864000000015 p[3,4] + 0.157286400000017 p[3,5]
   + 0.0943718399999961 p[3,6] + 0.0629145600000068 p[4,4]
   + 0.0629145599999974 p[4,5] + 0.0377487360000019 p[4,6]
   + 0.0209715199999991 p[5,4] + 0.0209715200000011 p[5,5]
   + 0.0125829119999995 p[5,6] >= -0.0184821428571428
 B_ub_2,_4: 0.262144 p[2,4] + 0.262144 p[2,5] + 0.157286400000017 p[2,6]
   + 0.1572864000000015 p[3,4] + 0.157286400000017 p[3,5]
   + 0.0943718399999961 p[3,6] + 0.0629145600000068 p[4,4]
   + 0.0629145599999974 p[4,5] + 0.0377487360000019 p[4,6]
   + 0.0209715199999991 p[5,4] + 0.0209715200000011 p[5,5]
   + 0.0125829119999995 p[5,6] <= 1
 B_lb_2,_5: 0.209715200000002 p[2,5] + 0.2516582400000273 p[2,6]
   + 0.1258291200000136 p[3,5] + 0.1509949439999937 p[3,6]
   + 0.0503316479999979 p[4,5] + 0.0603979776000031 p[4,6]
   + 0.0167772160000009 p[5,5] + 0.0201326591999992 p[5,6]
   >= -0.0184821428571428
 B_ub_2,_5: 0.209715200000002 p[2,5] + 0.2516582400000273 p[2,6]
   + 0.1258291200000136 p[3,5] + 0.1509949439999937 p[3,6]
   + 0.0503316479999979 p[4,5] + 0.0603979776000031 p[4,6]
   + 0.0167772160000009 p[5,5] + 0.0201326591999992 p[5,6] <= 1
 B_lb_3,_0: 0.512 p[3,0] + 0.1024 p[3,1] + 0.02048 p[3,2] + 0.004096 p[3,3]
   + 0.0008192 p[3,4] + 0.00016384 p[3,5] + 3.2768e-05 p[3,6]
   + 0.4096 p[4,0] + 0.08192 p[4,1] + 0.016384 p[4,2] + 0.0032768 p[4,3]
   + 0.00065536 p[4,4] + 0.000131072 p[4,5] + 2.62144e-05 p[4,6]
   + 0.2048 p[5,0] + 0.04096 p[5,1] + 0.008192 p[5,2] + 0.0016384 p[5,3]
   + 0.00032768 p[5,4] + 6.5536e-05 p[5,5] + 1.31072e-05 p[5,6]
   >= -0.00948214285714285
 B_ub_3,_0: 0.512 p[3,0] + 0.1024 p[3,1] + 0.02048 p[3,2] + 0.004096 p[3,3]
   + 0.0008192 p[3,4] + 0.00016384 p[3,5] + 3.2768e-05 p[3,6]
   + 0.4096 p[4,0] + 0.08192 p[4,1] + 0.016384 p[4,2] + 0.0032768 p[4,3]
   + 0.00065536 p[4,4] + 0.000131072 p[4,5] + 2.62144e-05 p[4,6]
   + 0.2048 p[5,0] + 0.04096 p[5,1] + 0.008192 p[5,2] + 0.0016384 p[5,3]
   + 0.00032768 p[5,4] + 6.5536e-05 p[5,5] + 1.31072e-05 p[5,6] <= 0.015
 B_lb_3,_1: 0.4096 p[3,1] + 0.16384 p[3,2] + 0.049152 p[3,3]
   + 0.0131072 p[3,4] + 0.0032768 p[3,5] + 0.000786432 p[3,6]
   + 0.32768 p[4,1] + 0.131072 p[4,2] + 0.0393216 p[4,3]
   + 0.0104857600000011 p[4,4] + 0.00262144 p[4,5]
   + 6.2914560000003209e-04 p[4,6] + 0.16384 p[5,1] + 0.065536 p[5,2]
   + 0.0196608 p[5,3] + 0.00524288 p[5,4] + 0.00131072 p[5,5]
   + 3.1457279999998764e-04 p[5,6] >= -0.0164821428571428
 B_ub_3,_1: 0.4096 p[3,1] + 0.16384 p[3,2] + 0.049152 p[3,3]
   + 0.0131072 p[3,4] + 0.0032768 p[3,5] + 0.000786432 p[3,6]
   + 0.32768 p[4,1] + 0.131072 p[4,2] + 0.0393216 p[4,3]
   + 0.0104857600000011 p[4,4] + 0.00262144 p[4,5]
   + 6.2914560000003209e-04 p[4,6] + 0.16384 p[5,1] + 0.065536 p[5,2]
   + 0.0196608 p[5,3] + 0.00524288 p[5,4] + 0.00131072 p[5,5]
   + 3.1457279999998764e-04 p[5,6] <= 0.0052
 B_lb_3,_2: 0.32768 p[3,2] + 0.196608 p[3,3] + 0.0786432 p[3,4]
   + 0.0262144 p[3,5] + 0.00786432 p[3,6] + 0.262144 p[4,2]
   + 0.1572864000000015 p[4,3] + 0.0629145600000068 p[4,4]
   + 0.0209715199999991 p[4,5] + 0.00629145600000032 p[4,6]
   + 0.131072 p[5,2] + 0.0786432 p[5,3] + 0.0314572799999987 p[5,4]
   + 0.0104857600000005 p[5,5] + 0.00314572799999988 p[5,6]
   >= -0.0184821428571428
 B_ub_3,_2: 0.32768 p[3,2] + 0.196608 p[3,3] + 0.0786432 p[3,4]
   + 0.0262144 p[3,5] + 0.00786432 p[3,6] + 0.262144 p[4,2]
   + 0.1572864000000015 p[4,3] + 0.0629145600000068 p[4,4]
   + 0.0209715199999991 p[4,5] + 0.00629145600000032 p[4,6]
   + 0.131072 p[5,2] + 0.0786432 p[5,3] + 0.0314572799999987 p[5,4]
   + 0.0104857600000005 p[5,5] + 0.00314572799999988 p[5,6] <= 1
 B_lb_3,_3: 0.262144 p[3,3] + 0.209715200000002 p[3,4]
   + 0.1048576000000114 p[3,5] + 0.0419430399999983 p[3,6]
   + 0.209715200000002 p[4,3] + 0.1677721600000182 p[4,4]
   + 0.0838860799999965 p[4,5] + 0.0335544320000017 p[4,6]
   + 0.1048576000000114 p[5,3] + 0.0838860799999965 p[5,4]
   + 0.0419430400000021 p[5,5] + 0.0167772159999993 p[5,6]
   >= -0.0184821428571428
 B_ub_3,_3: 0.262144 p[3,3] + 0.209715200000002 p[3,4]
   + 0.1048576000000114 p[3,5] + 0.0419430399999983 p[3,6]
   + 0.209715200000002 p[4,3] + 0.1677721600000182 p[4,4]
   + 0.0838860799999965 p[4,5] + 0.0335544320000017 p[4,6]
   + 0.1048576000000114 p[5,3] + 0.0838860799999965 p[5,4]
   + 0.0419430400000021 p[5,5] + 0.0167772159999993 p[5,6] <= 1
 B_lb_3,_4: 0.209715200000002 p[3,4] + 0.2097152000000228 p[3,5]
   + 0.1258291199999948 p[3,6] + 0.1677721600000182 p[4,4]
   + 0.167772159999993 p[4,5] + 0.1006632960000051 p[4,6]
   + 0.0838860799999965 p[5,4] + 0.0838860800000043 p[5,5]
   + 0.050331647999998 p[5,6] >= -0.0184821428571428
 B_ub_3,_4: 0.209715200000002 p[3,4] + 0.2097152000000228 p[3,5]
   + 0.1258291199999948 p[3,6] + 0.1677721600000182 p[4,4]
   + 0.167772159999993 p[4,5] + 0.1006632960000051 p[4,6]
   + 0.0838860799999965 p[5,4] + 0.0838860800000043 p[5,5]
   + 0.050331647999998 p[5,6] <= 1
 B_lb_3,_5: 0.1677721600000182 p[3,5] + 0.2013265919999916 p[3,6]
   + 0.1342177279999944 p[4,5] + 0.1610612736000082 p[4,6]
   + 0.0671088640000034 p[5,5] + 0.0805306367999968 p[5,6]
   >= -0.0184821428571428
 B_ub_3,_5: 0.1677721600000182 p[3,5] + 0.2013265919999916 p[3,6]
   + 0.1342177279999944 p[4,5] + 0.1610612736000082 p[4,6]
   + 0.0671088640000034 p[5,5] + 0.0805306367999968 p[5,6] <= 1
 B_lb_4,_0: 0.4096 p[4,0] + 0.08192 p[4,1] + 0.016384 p[4,2]
   + 0.0032768 p[4,3] + 0.00065536 p[4,4] + 0.000131072 p[4,5]
   + 2.62144e-05 p[4,6] + 0.4096 p[5,0] + 0.08192 p[5,1] + 0.016384 p[5,2]
   + 0.0032768 p[5,3] + 0.00065536 p[5,4] + 0.000131072 p[5,5]
   + 2.62144e-05 p[5,6] >= -0.0174821428571428
 B_ub_4,_0: 0.4096 p[4,0] + 0.08192 p[4,1] + 0.016384 p[4,2]
   + 0.0032768 p[4,3] + 0.00065536 p[4,4] + 0.000131072 p[4,5]
   + 2.62144e-05 p[4,6] + 0.4096 p[5,0] + 0.08192 p[5,1] + 0.016384 p[5,2]
   + 0.0032768 p[5,3] + 0.00065536 p[5,4] + 0.000131072 p[5,5]
   + 2.62144e-05 p[5,6] <= 0.0036
 B_lb_4,_1: 0.32768 p[4,1] + 0.131072 p[4,2] + 0.0393216 p[4,3]
   + 0.0104857600000011 p[4,4] + 0.00262144 p[4,5]
   + 6.2914560000003209e-04 p[4,6] + 0.32768 p[5,1] + 0.131072 p[5,2]
   + 0.0393216 p[5,3] + 0.0104857599999996 p[5,4] + 0.00262144 p[5,5]
   + 6.2914559999997528e-04 p[5,6] >= -0.0184821428571428
 B_ub_4,_1: 0.32768 p[4,1] + 0.131072 p[4,2] + 0.0393216 p[4,3]
   + 0.0104857600000011 p[4,4] + 0.00262144 p[4,5]
   + 6.2914560000003209e-04 p[4,6] + 0.32768 p[5,1] + 0.131072 p[5,2]
   + 0.0393216 p[5,3] + 0.0104857599999996 p[5,4] + 0.00262144 p[5,5]
   + 6.2914559999997528e-04 p[5,6] <= 1
 B_lb_4,_2: 0.262144 p[4,2] + 0.1572864000000015 p[4,3]
   + 0.0629145600000068 p[4,4] + 0.0209715199999991 p[4,5]
   + 0.00629145600000032 p[4,6] + 0.262144 p[5,2]
   + 0.157286400000017 p[5,3] + 0.0629145599999974 p[5,4]
   + 0.0209715200000011 p[5,5] + 0.00629145599999975 p[5,6]
   >= -0.0184821428571428
 B_ub_4,_2: 0.262144 p[4,2] + 0.1572864000000015 p[4,3]
   + 0.0629145600000068 p[4,4] + 0.0209715199999991 p[4,5]
   + 0.00629145600000032 p[4,6] + 0.262144 p[5,2]
   + 0.157286400000017 p[5,3] + 0.0629145599999974 p[5,4]
   + 0.0209715200000011 p[5,5] + 0.00629145599999975 p[5,6] <= 1
 B_lb_4,_3: 0.209715200000002 p[4,3] + 0.1677721600000182 p[4,4]
   + 0.0838860799999965 p[4,5] + 0.0335544320000017 p[4,6]
   + 0.2097152000000228 p[5,3] + 0.167772159999993 p[5,4]
   + 0.0838860800000043 p[5,5] + 0.0335544319999987 p[5,6]
   >= -0.0184821428571428
 B_ub_4,_3: 0.209715200000002 p[4,3] + 0.1677721600000182 p[4,4]
   + 0.0838860799999965 p[4,5] + 0.0335544320000017 p[4,6]
   + 0.2097152000000228 p[5,3] + 0.167772159999993 p[5,4]
   + 0.0838860800000043 p[5,5] + 0.0335544319999987 p[5,6] <= 1
 B_lb_4,_4: 0.1677721600000182 p[4,4] + 0.167772159999993 p[4,5]
   + 0.1006632960000051 p[4,6] + 0.167772159999993 p[5,4]
   + 0.1677721600000086 p[5,5] + 0.100663295999996 p[5,6]
   >= -0.0184821428571428
 B_ub_4,_4: 0.1677721600000182 p[4,4] + 0.167772159999993 p[4,5]
   + 0.1006632960000051 p[4,6] + 0.167772159999993 p[5,4]
   + 0.1677721600000086 p[5,5] + 0.100663295999996 p[5,6] <= 1
 B_lb_4,_5: 0.1342177279999944 p[4,5] + 0.1610612736000082 p[4,6]
   + 0.1342177280000069 p[5,5] + 0.1610612735999937 p[5,6]
   >= -0.0184821428571428
 B_ub_4,_5: 0.1342177279999944 p[4,5] + 0.1610612736000082 p[4,6]
   + 0.1342177280000069 p[5,5] + 0.1610612735999937 p[5,6] <= 1
 B_marginal_lb_0: p1[0] + 0.2 p1[1] + 0.04 p1[2] + 0.008 p1[3]
   + 0.0016 p1[4] + 0.00032 p1[5] >= 0.508645
 B_marginal_ub_0: p1[0] + 0.2 p1[1] + 0.04 p1[2] + 0.008 p1[3]
   + 0.0016 p1[4] + 0.00032 p1[5] <= 0.6418
 B_marginal_lb_1: 0.8 p1[1] + 0.32 p1[2] + 0.096 p1[3] + 0.0256 p1[4]
   + 0.0064 p1[5] >= 0.15925
 B_marginal_ub_1: 0.8 p1[1] + 0.32 p1[2] + 0.096 p1[3] + 0.0256 p1[4]
   + 0.0064 p1[5] <= 0.2906
 B_marginal_lb_2: 0.64 p1[2] + 0.384 p1[3] + 0.1536 p1[4] + 0.0512 p1[5]
   >= -0.03715
 B_marginal_ub_2: 0.64 p1[2] + 0.384 p1[3] + 0.1536 p1[4] + 0.0512 p1[5]
   <= 0.0832
 B_marginal_lb_3: 0.512 p1[3] + 0.4096 p1[4] + 0.2048 p1[5] >= -0.09355
 B_marginal_ub_3: 0.512 p1[3] + 0.4096 p1[4] + 0.2048 p1[5] <= 0.0192
 B_marginal_lb_4: 0.4096 p1[4] + 0.4096 p1[5] >= -0.10455
 B_marginal_ub_4: 0.4096 p1[4] + 0.4096 p1[5] <= 0.0042
 B_marginal_lb_0: p2[0] + 0.2 p2[1] + 0.04 p2[2] + 0.008 p2[3]
   + 0.0016 p2[4] + 0.00032 p2[5] + 6.4e-05 p2[6] >= 0.5184214285714286
 B_marginal_ub_0: p2[0] + 0.2 p2[1] + 0.04 p2[2] + 0.008 p2[3]
   + 0.0016 p2[4] + 0.00032 p2[5] + 6.4e-05 p2[6] <= 0.6372
 B_marginal_lb_1: 0.8 p2[1] + 0.32 p2[2] + 0.096 p2[3] + 0.0256 p2[4]
   + 0.0064 p2[5] + 0.001536 p2[6] >= 0.1756214285714285
 B_marginal_ub_1: 0.8 p2[1] + 0.32 p2[2] + 0.096 p2[3] + 0.0256 p2[4]
   + 0.0064 p2[5] + 0.001536 p2[6] <= 0.2926
 B_marginal_lb_2: 0.64 p2[2] + 0.384 p2[3] + 0.1536 p2[4] + 0.0512 p2[5]
   + 0.01536 p2[6] >= -0.0229785714285714
 B_marginal_ub_2: 0.64 p2[2] + 0.384 p2[3] + 0.1536 p2[4] + 0.0512 p2[5]
   + 0.01536 p2[6] <= 0.083805
 B_marginal_lb_3: 0.512 p2[3] + 0.4096 p2[4] + 0.2048 p2[5] + 0.08192 p2[6]
   >= -0.0785785714285714
 B_marginal_ub_3: 0.512 p2[3] + 0.4096 p2[4] + 0.2048 p2[5] + 0.08192 p2[6]
   <= 0.0208
 B_marginal_lb_4: 0.4096 p2[4] + 0.4096 p2[5] + 0.24576 p2[6]
   >= -0.0909785714285714
 B_marginal_ub_4: 0.4096 p2[4] + 0.4096 p2[5] + 0.24576 p2[6] <= 0.0038
 B_marginal_lb_5: 0.32768 p2[5] + 0.393216 p2[6] >= -0.0921785714285714
 B_marginal_ub_5: 0.32768 p2[5] + 0.393216 p2[6] <= 1
 frechet_lb_0,_0: - p[0,0] + p1[0] + p2[0] <= 1
 frechet_ub_x1_0: p[0,0] - p1[0] <= 0
 frechet_ub_x2_0: p[0,0] - p2[0] <= 0
 frechet_lb_0,_1: - p[0,1] + p1[0] + p2[1] <= 1
 frechet_ub_x1_0: p[0,1] - p1[0] <= 0
 frechet_ub_x2_1: p[0,1] - p2[1] <= 0
 frechet_lb_0,_2: - p[0,2] + p1[0] + p2[2] <= 1
 frechet_ub_x1_0: p[0,2] - p1[0] <= 0
 frechet_ub_x2_2: p[0,2] - p2[2] <= 0
 frechet_lb_0,_3: - p[0,3] + p1[0] + p2[3] <= 1
 frechet_ub_x1_0: p[0,3] - p1[0] <= 0
 frechet_ub_x2_3: p[0,3] - p2[3] <= 0
 frechet_lb_0,_4: - p[0,4] + p1[0] + p2[4] <= 1
 frechet_ub_x1_0: p[0,4] - p1[0] <= 0
 frechet_ub_x2_4: p[0,4] - p2[4] <= 0
 frechet_lb_0,_5: - p[0,5] + p1[0] + p2[5] <= 1
 frechet_ub_x1_0: p[0,5] - p1[0] <= 0
 frechet_ub_x2_5: p[0,5] - p2[5] <= 0
 frechet_lb_0,_6: - p[0,6] + p1[0] + p2[6] <= 1
 frechet_ub_x1_0: p[0,6] - p1[0] <= 0
 frechet_ub_x2_6: p[0,6] - p2[6] <= 0
 frechet_lb_1,_0: - p[1,0] + p1[1] + p2[0] <= 1
 frechet_ub_x1_1: p[1,0] - p1[1] <= 0
 frechet_ub_x2_0: p[1,0] - p2[0] <= 0
 frechet_lb_1,_1: - p[1,1] + p1[1] + p2[1] <= 1
 frechet_ub_x1_1: p[1,1] - p1[1] <= 0
 frechet_ub_x2_1: p[1,1] - p2[1] <= 0
 frechet_lb_1,_2: - p[1,2] + p1[1] + p2[2] <= 1
 frechet_ub_x1_1: p[1,2] - p1[1] <= 0
 frechet_ub_x2_2: p[1,2] - p2[2] <= 0
 frechet_lb_1,_3: - p[1,3] + p1[1] + p2[3] <= 1
 frechet_ub_x1_1: p[1,3] - p1[1] <= 0
 frechet_ub_x2_3: p[1,3] - p2[3] <= 0
 frechet_lb_1,_4: - p[1,4] + p1[1] + p2[4] <= 1
 frechet_ub_x1_1: p[1,4] - p1[1] <= 0
 frechet_ub_x2_4: p[1,4] - p2[4] <= 0
 frechet_lb_1,_5: - p[1,5] + p1[1] + p2[5] <= 1
 frechet_ub_x1_1: p[1,5] - p1[1] <= 0
 frechet_ub_x2_5: p[1,5] - p2[5] <= 0
 frechet_lb_1,_6: - p[1,6] + p1[1] + p2[6] <= 1
 frechet_ub_x1_1: p[1,6] - p1[1] <= 0
 frechet_ub_x2_6: p[1,6] - p2[6] <= 0
 frechet_lb_2,_0: - p[2,0] + p1[2] + p2[0] <= 1
 frechet_ub_x1_2: p[2,0] - p1[2] <= 0
 frechet_ub_x2_0: p[2,0] - p2[0] <= 0
 frechet_lb_2,_1: - p[2,1] + p1[2] + p2[1] <= 1
 frechet_ub_x1_2: p[2,1] - p1[2] <= 0
 frechet_ub_x2_1: p[2,1] - p2[1] <= 0
 frechet_lb_2,_2: - p[2,2] + p1[2] + p2[2] <= 1
 frechet_ub_x1_2: p[2,2] - p1[2] <= 0
 frechet_ub_x2_2: p[2,2] - p2[2] <= 0
 frechet_lb_2,_3: - p[2,3] + p1[2] + p2[3] <= 1
 frechet_ub_x1_2: p[2,3] - p1[2] <= 0
 frechet_ub_x2_3: p[2,3] - p2[3] <= 0
 frechet_lb_2,_4: - p[2,4] + p1[2] + p2[4] <= 1
 frechet_ub_x1_2: p[2,4] - p1[2] <= 0
 frechet_ub_x2_4: p[2,4] - p2[4] <= 0
 frechet_lb_2,_5: - p[2,5] + p1[2] + p2[5] <= 1
 frechet_ub_x1_2: p[2,5] - p1[2] <= 0
 frechet_ub_x2_5: p[2,5] - p2[5] <= 0
 frechet_lb_2,_6: - p[2,6] + p1[2] + p2[6] <= 1
 frechet_ub_x1_2: p[2,6] - p1[2] <= 0
 frechet_ub_x2_6: p[2,6] - p2[6] <= 0
 frechet_lb_3,_0: - p[3,0] + p1[3] + p2[0] <= 1
 frechet_ub_x1_3: p[3,0] - p1[3] <= 0
 frechet_ub_x2_0: p[3,0] - p2[0] <= 0
 frechet_lb_3,_1: - p[3,1] + p1[3] + p2[1] <= 1
 frechet_ub_x1_3: p[3,1] - p1[3] <= 0
 frechet_ub_x2_1: p[3,1] - p2[1] <= 0
 frechet_lb_3,_2: - p[3,2] + p1[3] + p2[2] <= 1
 frechet_ub_x1_3: p[3,2] - p1[3] <= 0
 frechet_ub_x2_2: p[3,2] - p2[2] <= 0
 frechet_lb_3,_3: - p[3,3] + p1[3] + p2[3] <= 1
 frechet_ub_x1_3: p[3,3] - p1[3] <= 0
 frechet_ub_x2_3: p[3,3] - p2[3] <= 0
 frechet_lb_3,_4: - p[3,4] + p1[3] + p2[4] <= 1
 frechet_ub_x1_3: p[3,4] - p1[3] <= 0
 frechet_ub_x2_4: p[3,4] - p2[4] <= 0
 frechet_lb_3,_5: - p[3,5] + p1[3] + p2[5] <= 1
 frechet_ub_x1_3: p[3,5] - p1[3] <= 0
 frechet_ub_x2_5: p[3,5] - p2[5] <= 0
 frechet_lb_3,_6: - p[3,6] + p1[3] + p2[6] <= 1
 frechet_ub_x1_3: p[3,6] - p1[3] <= 0
 frechet_ub_x2_6: p[3,6] - p2[6] <= 0
 frechet_lb_4,_0: - p[4,0] + p1[4] + p2[0] <= 1
 frechet_ub_x1_4: p[4,0] - p1[4] <= 0
 frechet_ub_x2_0: p[4,0] - p2[0] <= 0
 frechet_lb_4,_1: - p[4,1] + p1[4] + p2[1] <= 1
 frechet_ub_x1_4: p[4,1] - p1[4] <= 0
 frechet_ub_x2_1: p[4,1] - p2[1] <= 0
 frechet_lb_4,_2: - p[4,2] + p1[4] + p2[2] <= 1
 frechet_ub_x1_4: p[4,2] - p1[4] <= 0
 frechet_ub_x2_2: p[4,2] - p2[2] <= 0
 frechet_lb_4,_3: - p[4,3] + p1[4] + p2[3] <= 1
 frechet_ub_x1_4: p[4,3] - p1[4] <= 0
 frechet_ub_x2_3: p[4,3] - p2[3] <= 0
 frechet_lb_4,_4: - p[4,4] + p1[4] + p2[4] <= 1
 frechet_ub_x1_4: p[4,4] - p1[4] <= 0
 frechet_ub_x2_4: p[4,4] - p2[4] <= 0
 frechet_lb_4,_5: - p[4,5] + p1[4] + p2[5] <= 1
 frechet_ub_x1_4: p[4,5] - p1[4] <= 0
 frechet_ub_x2_5: p[4,5] - p2[5] <= 0
 frechet_lb_4,_6: - p[4,6] + p1[4] + p2[6] <= 1
 frechet_ub_x1_4: p[4,6] - p1[4] <= 0
 frechet_ub_x2_6: p[4,6] - p2[6] <= 0
 frechet_lb_5,_0: - p[5,0] + p1[5] + p2[0] <= 1
 frechet_ub_x1_5: p[5,0] - p1[5] <= 0
 frechet_ub_x2_0: p[5,0] - p2[0] <= 0
 frechet_lb_5,_1: - p[5,1] + p1[5] + p2[1] <= 1
 frechet_ub_x1_5: p[5,1] - p1[5] <= 0
 frechet_ub_x2_1: p[5,1] - p2[1] <= 0
 frechet_lb_5,_2: - p[5,2] + p1[5] + p2[2] <= 1
 frechet_ub_x1_5: p[5,2] - p1[5] <= 0
 frechet_ub_x2_2: p[5,2] - p2[2] <= 0
 frechet_lb_5,_3: - p[5,3] + p1[5] + p2[3] <= 1
 frechet_ub_x1_5: p[5,3] - p1[5] <= 0
 frechet_ub_x2_3: p[5,3] - p2[3] <= 0
 frechet_lb_5,_4: - p[5,4] + p1[5] + p2[4] <= 1
 frechet_ub_x1_5: p[5,4] - p1[5] <= 0
 frechet_ub_x2_4: p[5,4] - p2[4] <= 0
 frechet_lb_5,_5: - p[5,5] + p1[5] + p2[5] <= 1
 frechet_ub_x1_5: p[5,5] - p1[5] <= 0
 frechet_ub_x2_5: p[5,5] - p2[5] <= 0
 frechet_lb_5,_6: - p[5,6] + p1[5] + p2[6] <= 1
 frechet_ub_x1_5: p[5,6] - p1[5] <= 0
 frechet_ub_x2_6: p[5,6] - p2[6] <= 0
 Distribution: p[0,0] + p[0,1] + p[0,2] + p[0,3] + p[0,4] + p[0,5] + p[0,6]
   + p[1,0] + p[1,1] + p[1,2] + p[1,3] + p[1,4] + p[1,5] + p[1,6] + p[2,0]
   + p[2,1] + p[2,2] + p[2,3] + p[2,4] + p[2,5] + p[2,6] + p[3,0] + p[3,1]
   + p[3,2] + p[3,3] + p[3,4] + p[3,5] + p[3,6] + p[4,0] + p[4,1] + p[4,2]
   + p[4,3] + p[4,4] + p[4,5] + p[4,6] + p[5,0] + p[5,1] + p[5,2] + p[5,3]
   + p[5,4] + p[5,5] + p[5,6] <= 1
 Distribution_x1: p1[0] + p1[1] + p1[2] + p1[3] + p1[4] + p1[5] <= 1
 Distribution_x2: p2[0] + p2[1] + p2[2] + p2[3] + p2[4] + p2[5] + p2[6]
   <= 1
 Equation_0,_0: [ - p[0,0] * k_tx_1 - p[0,0] * k_tx_2 + p[0,1] * k_deg_2
   + p[1,0] * k_deg_1 + p[1,1] * k_reg ] = 0
 Equation_0,_1: [ p[0,0] * k_tx_2 - p[0,1] * k_tx_1 - p[0,1] * k_tx_2
   - p[0,1] * k_deg_2 + 2 p[0,2] * k_deg_2 + p[1,1] * k_deg_1
   + 2 p[1,2] * k_reg ] = 0
 Equation_0,_2: [ p[0,1] * k_tx_2 - p[0,2] * k_tx_1 - p[0,2] * k_tx_2
   - 2 p[0,2] * k_deg_2 + 3 p[0,3] * k_deg_2 + p[1,2] * k_deg_1
   + 3 p[1,3] * k_reg ] = 0
 Equation_0,_3: [ p[0,2] * k_tx_2 - p[0,3] * k_tx_1 - p[0,3] * k_tx_2
   - 3 p[0,3] * k_deg_2 + 4 p[0,4] * k_deg_2 + p[1,3] * k_deg_1
   + 4 p[1,4] * k_reg ] = 0
 Equation_0,_4: [ p[0,3] * k_tx_2 - p[0,4] * k_tx_1 - p[0,4] * k_tx_2
   - 4 p[0,4] * k_deg_2 + 5 p[0,5] * k_deg_2 + p[1,4] * k_deg_1
   + 5 p[1,5] * k_reg ] = 0
 Equation_0,_5: [ p[0,4] * k_tx_2 - p[0,5] * k_tx_1 - p[0,5] * k_tx_2
   - 5 p[0,5] * k_deg_2 + 6 p[0,6] * k_deg_2 + p[1,5] * k_deg_1
   + 6 p[1,6] * k_reg ] = 0
 Equation_1,_0: [ p[0,0] * k_tx_1 - p[1,0] * k_tx_1 - p[1,0] * k_tx_2
   - p[1,0] * k_deg_1 + p[1,1] * k_deg_2 + 2 p[2,0] * k_deg_1
   + 2 p[2,1] * k_reg ] = 0
 Equation_1,_1: [ p[0,1] * k_tx_1 + p[1,0] * k_tx_2 - p[1,1] * k_tx_1
   - p[1,1] * k_tx_2 - p[1,1] * k_deg_1 - p[1,1] * k_deg_2 - p[1,1] * k_reg
   + 2 p[1,2] * k_deg_2 + 2 p[2,1] * k_deg_1 + 4 p[2,2] * k_reg ] = 0
 Equation_1,_2: [ p[0,2] * k_tx_1 + p[1,1] * k_tx_2 - p[1,2] * k_tx_1
   - p[1,2] * k_tx_2 - p[1,2] * k_deg_1 - 2 p[1,2] * k_deg_2
   - 2 p[1,2] * k_reg + 3 p[1,3] * k_deg_2 + 2 p[2,2] * k_deg_1
   + 6 p[2,3] * k_reg ] = 0
 Equation_1,_3: [ p[0,3] * k_tx_1 + p[1,2] * k_tx_2 - p[1,3] * k_tx_1
   - p[1,3] * k_tx_2 - p[1,3] * k_deg_1 - 3 p[1,3] * k_deg_2
   - 3 p[1,3] * k_reg + 4 p[1,4] * k_deg_2 + 2 p[2,3] * k_deg_1
   + 8 p[2,4] * k_reg ] = 0
 Equation_1,_4: [ p[0,4] * k_tx_1 + p[1,3] * k_tx_2 - p[1,4] * k_tx_1
   - p[1,4] * k_tx_2 - p[1,4] * k_deg_1 - 4 p[1,4] * k_deg_2
   - 4 p[1,4] * k_reg + 5 p[1,5] * k_deg_2 + 2 p[2,4] * k_deg_1
   + 10 p[2,5] * k_reg ] = 0
 Equation_1,_5: [ p[0,5] * k_tx_1 + p[1,4] * k_tx_2 - p[1,5] * k_tx_1
   - p[1,5] * k_tx_2 - p[1,5] * k_deg_1 - 5 p[1,5] * k_deg_2
   - 5 p[1,5] * k_reg + 6 p[1,6] * k_deg_2 + 2 p[2,5] * k_deg_1
   + 12 p[2,6] * k_reg ] = 0
 Equation_2,_0: [ p[1,0] * k_tx_1 - p[2,0] * k_tx_1 - p[2,0] * k_tx_2
   - 2 p[2,0] * k_deg_1 + p[2,1] * k_deg_2 + 3 p[3,0] * k_deg_1
   + 3 p[3,1] * k_reg ] = 0
 Equation_2,_1: [ p[1,1] * k_tx_1 + p[2,0] * k_tx_2 - p[2,1] * k_tx_1
   - p[2,1] * k_tx_2 - 2 p[2,1] * k_deg_1 - p[2,1] * k_deg_2
   - 2 p[2,1] * k_reg + 2 p[2,2] * k_deg_2 + 3 p[3,1] * k_deg_1
   + 6 p[3,2] * k_reg ] = 0
 Equation_2,_2: [ p[1,2] * k_tx_1 + p[2,1] * k_tx_2 - p[2,2] * k_tx_1
   - p[2,2] * k_tx_2 - 2 p[2,2] * k_deg_1 - 2 p[2,2] * k_deg_2
   - 4 p[2,2] * k_reg + 3 p[2,3] * k_deg_2 + 3 p[3,2] * k_deg_1
   + 9 p[3,3] * k_reg ] = 0
 Equation_2,_3: [ p[1,3] * k_tx_1 + p[2,2] * k_tx_2 - p[2,3] * k_tx_1
   - p[2,3] * k_tx_2 - 2 p[2,3] * k_deg_1 - 3 p[2,3] * k_deg_2
   - 6 p[2,3] * k_reg + 4 p[2,4] * k_deg_2 + 3 p[3,3] * k_deg_1
   + 12 p[3,4] * k_reg ] = 0
 Equation_2,_4: [ p[1,4] * k_tx_1 + p[2,3] * k_tx_2 - p[2,4] * k_tx_1
   - p[2,4] * k_tx_2 - 2 p[2,4] * k_deg_1 - 4 p[2,4] * k_deg_2
   - 8 p[2,4] * k_reg + 5 p[2,5] * k_deg_2 + 3 p[3,4] * k_deg_1
   + 15 p[3,5] * k_reg ] = 0
 Equation_2,_5: [ p[1,5] * k_tx_1 + p[2,4] * k_tx_2 - p[2,5] * k_tx_1
   - p[2,5] * k_tx_2 - 2 p[2,5] * k_deg_1 - 5 p[2,5] * k_deg_2
   - 10 p[2,5] * k_reg + 6 p[2,6] * k_deg_2 + 3 p[3,5] * k_deg_1
   + 18 p[3,6] * k_reg ] = 0
 Equation_3,_0: [ p[2,0] * k_tx_1 - p[3,0] * k_tx_1 - p[3,0] * k_tx_2
   - 3 p[3,0] * k_deg_1 + p[3,1] * k_deg_2 + 4 p[4,0] * k_deg_1
   + 4 p[4,1] * k_reg ] = 0
 Equation_3,_1: [ p[2,1] * k_tx_1 + p[3,0] * k_tx_2 - p[3,1] * k_tx_1
   - p[3,1] * k_tx_2 - 3 p[3,1] * k_deg_1 - p[3,1] * k_deg_2
   - 3 p[3,1] * k_reg + 2 p[3,2] * k_deg_2 + 4 p[4,1] * k_deg_1
   + 8 p[4,2] * k_reg ] = 0
 Equation_3,_2: [ p[2,2] * k_tx_1 + p[3,1] * k_tx_2 - p[3,2] * k_tx_1
   - p[3,2] * k_tx_2 - 3 p[3,2] * k_deg_1 - 2 p[3,2] * k_deg_2
   - 6 p[3,2] * k_reg + 3 p[3,3] * k_deg_2 + 4 p[4,2] * k_deg_1
   + 12 p[4,3] * k_reg ] = 0
 Equation_3,_3: [ p[2,3] * k_tx_1 + p[3,2] * k_tx_2 - p[3,3] * k_tx_1
   - p[3,3] * k_tx_2 - 3 p[3,3] * k_deg_1 - 3 p[3,3] * k_deg_2
   - 9 p[3,3] * k_reg + 4 p[3,4] * k_deg_2 + 4 p[4,3] * k_deg_1
   + 16 p[4,4] * k_reg ] = 0
 Equation_3,_4: [ p[2,4] * k_tx_1 + p[3,3] * k_tx_2 - p[3,4] * k_tx_1
   - p[3,4] * k_tx_2 - 3 p[3,4] * k_deg_1 - 4 p[3,4] * k_deg_2
   - 12 p[3,4] * k_reg + 5 p[3,5] * k_deg_2 + 4 p[4,4] * k_deg_1
   + 20 p[4,5] * k_reg ] = 0
 Equation_3,_5: [ p[2,5] * k_tx_1 + p[3,4] * k_tx_2 - p[3,5] * k_tx_1
   - p[3,5] * k_tx_2 - 3 p[3,5] * k_deg_1 - 5 p[3,5] * k_deg_2
   - 15 p[3,5] * k_reg + 6 p[3,6] * k_deg_2 + 4 p[4,5] * k_deg_1
   + 24 p[4,6] * k_reg ] = 0
 Equation_4,_0: [ p[3,0] * k_tx_1 - p[4,0] * k_tx_1 - p[4,0] * k_tx_2
   - 4 p[4,0] * k_deg_1 + p[4,1] * k_deg_2 + 5 p[5,0] * k_deg_1
   + 5 p[5,1] * k_reg ] = 0
 Equation_4,_1: [ p[3,1] * k_tx_1 + p[4,0] * k_tx_2 - p[4,1] * k_tx_1
   - p[4,1] * k_tx_2 - 4 p[4,1] * k_deg_1 - p[4,1] * k_deg_2
   - 4 p[4,1] * k_reg + 2 p[4,2] * k_deg_2 + 5 p[5,1] * k_deg_1
   + 10 p[5,2] * k_reg ] = 0
 Equation_4,_2: [ p[3,2] * k_tx_1 + p[4,1] * k_tx_2 - p[4,2] * k_tx_1
   - p[4,2] * k_tx_2 - 4 p[4,2] * k_deg_1 - 2 p[4,2] * k_deg_2
   - 8 p[4,2] * k_reg + 3 p[4,3] * k_deg_2 + 5 p[5,2] * k_deg_1
   + 15 p[5,3] * k_reg ] = 0
 Equation_4,_3: [ p[3,3] * k_tx_1 + p[4,2] * k_tx_2 - p[4,3] * k_tx_1
   - p[4,3] * k_tx_2 - 4 p[4,3] * k_deg_1 - 3 p[4,3] * k_deg_2
   - 12 p[4,3] * k_reg + 4 p[4,4] * k_deg_2 + 5 p[5,3] * k_deg_1
   + 20 p[5,4] * k_reg ] = 0
 Equation_4,_4: [ p[3,4] * k_tx_1 + p[4,3] * k_tx_2 - p[4,4] * k_tx_1
   - p[4,4] * k_tx_2 - 4 p[4,4] * k_deg_1 - 4 p[4,4] * k_deg_2
   - 16 p[4,4] * k_reg + 5 p[4,5] * k_deg_2 + 5 p[5,4] * k_deg_1
   + 25 p[5,5] * k_reg ] = 0
 Equation_4,_5: [ p[3,5] * k_tx_1 + p[4,4] * k_tx_2 - p[4,5] * k_tx_1
   - p[4,5] * k_tx_2 - 4 p[4,5] * k_deg_1 - 5 p[4,5] * k_deg_2
   - 20 p[4,5] * k_reg + 6 p[4,6] * k_deg_2 + 5 p[5,5] * k_deg_1
   + 30 p[5,6] * k_reg ] = 0
Bounds
 p[0,0] <= 1
 p[0,1] <= 1
 p[0,2] <= 1
 p[0,3] <= 1
 p[0,4] <= 1
 p[0,5] <= 1
 p[0,6] <= 1
 p[1,0] <= 1
 p[1,1] <= 1
 p[1,2] <= 1
 p[1,3] <= 1
 p[1,4] <= 1
 p[1,5] <= 1
 p[1,6] <= 1
 p[2,0] <= 1
 p[2,1] <= 1
 p[2,2] <= 1
 p[2,3] <= 1
 p[2,4] <= 1
 p[2,5] <= 1
 p[2,6] <= 1
 p[3,0] <= 1
 p[3,1] <= 1
 p[3,2] <= 1
 p[3,3] <= 1
 p[3,4] <= 1
 p[3,5] <= 1
 p[3,6] <= 1
 p[4,0] <= 1
 p[4,1] <= 1
 p[4,2] <= 1
 p[4,3] <= 1
 p[4,4] <= 1
 p[4,5] <= 1
 p[4,6] <= 1
 p[5,0] <= 1
 p[5,1] <= 1
 p[5,2] <= 1
 p[5,3] <= 1
 p[5,4] <= 1
 p[5,5] <= 1
 p[5,6] <= 1
 p1[0] <= 1
 p1[1] <= 1
 p1[2] <= 1
 p1[3] <= 1
 p1[4] <= 1
 p1[5] <= 1
 p2[0] <= 1
 p2[1] <= 1
 p2[2] <= 1
 p2[3] <= 1
 p2[4] <= 1
 p2[5] <= 1
 p2[6] <= 1
 k_tx_1 <= 10
 k_tx_2 <= 10
 k_deg_1 <= 10
 k_deg_2 <= 10
 k_reg <= 10
End
